p cnf 31 79
a 4 14 0
e 1 2 3 5 6 7 8 9 10 11 12 13 15 16 17 18 19 20 21 22 23 24 25 26 27 28 29 30 31 0
1 -2 -3 0
-1 2 -3 0
1 2 3 0
-1 -2 3 0
5 2 0
5 4 0
-2 -4 -5 0
-6 -5 0
-6 2 0
5 -2 6 0
-3 -6 -7 0
3 6 -7 0
-3 6 7 0
3 -6 7 0
-8 -4 -9 0
8 4 -9 0
-8 4 9 0
8 -4 9 0
11 -1 0
11 10 0
1 -10 -11 0
12 -9 0
12 11 0
9 -11 -12 0
13 -14 -15 0
-13 14 -15 0
13 14 15 0
-13 -14 15 0
-16 12 0
-16 15 0
-12 -15 16 0
-17 -5 0
-17 -8 0
5 8 17 0
-18 2 0
-18 15 0
-2 -15 18 0
-18 -19 -20 0
18 19 -20 0
-18 19 20 0
18 -19 20 0
-21 -17 0
-21 -20 0
17 20 21 0
-24 -22 0
-24 23 0
22 -23 24 0
-25 2 0
-25 -9 0
-2 9 25 0
26 24 0
26 -25 0
-24 25 -26 0
4 11 -27 0
-4 -11 -27 0
4 -11 27 0
-4 11 27 0
-26 27 -28 0
26 -27 -28 0
-26 -27 28 0
26 27 28 0
-21 -28 -29 0
21 28 -29 0
-21 28 29 0
21 -28 29 0
30 -16 0
30 29 0
16 -29 -30 0
31 -7 0
31 30 0
7 -30 -31 0
-15 16 1 0
28 -14 -9 -5 -10 -16 -6 0
-14 2 9 -18 -15 16 3 0
-28 -27 15 -8 17 -4 0
-15 13 -11 23 12 7 -10 -6 0
-29 -3 7 -25 -11 8 12 0
3 16 -5 29 -14 -11 31 -15 0
31 0
